XYZ: B107Vac34                          
   1.00000000000000     
     5.4704908020720824    3.1283159236556664    7.9327061250457183
    -5.3964240697835120    3.1238787131456829    7.8834054255071822
     0.0331895855721452   -6.2915571971358633    7.9236943653537315
   B 
   107
Direct
  0.3507339315004925  0.1761124293229670  0.0037223548513241
  0.9978187773147027  0.3514003986325839  0.1842265684079963
  0.1759763277847170  0.0060105232250356  0.3477288689781783
  0.8155052904570764  0.6511420217706323  0.0005808858414820
  0.6484001801930543  0.0004710048248035  0.8248089858937022
  0.9962499647314474  0.8257797965298632  0.6496888347805021
  0.6495701698455895  0.8227741006637148  0.9976314121360368
  0.9942457580981575  0.6492071253308089  0.8278331068908863
  0.8190290771644578  0.0028365466983489  0.6491161425465667
  0.1713007218825147  0.3526951521608183  0.0042346829655538
  0.3472935210922942  0.0029620535139633  0.1831614390505768
  0.0022805010248624  0.1789319174313910  0.3502582076732161
  0.4476785503042452  0.1060120592316080  0.8322791045422545
  0.8308506307485264  0.4487738062145090  0.1101150887935785
  0.1056839586948295  0.8340542033072239  0.4486462010500848
  0.8911178650058444  0.5540371631369216  0.1662537369588780
  0.5529733402233513  0.1650753931000672  0.8926898017872669
  0.1705306498674428  0.8936320582564944  0.5478800991139569
  0.5511945487956338  0.8939705040231790  0.1662487437175740
  0.1691683302866610  0.5481100525125662  0.8944896912266875
  0.8946691089920692  0.1631279452289591  0.5550188695845929
  0.1048967963088979  0.4534053350130567  0.8292838491982516
  0.4469738847522634  0.8358381984429292  0.1052262246433494
  0.8382463170618187  0.1049754414926771  0.4450658157969780
  0.6782912753723918  0.3779410314501582  0.2001363280924356
  0.2014837311118750  0.6829767458792815  0.3731838435023722
  0.3723274528297797  0.2028056820060082  0.6829437851594127
  0.6306069599142333  0.3210074064210969  0.7970343824117476
  0.3206279593997065  0.7921203990402802  0.6248649303393521
  0.7984897733476706  0.6233046849287335  0.3183397500595853
  0.3188143488379963  0.6224558074536003  0.8001833996020029
  0.7995649709263182  0.3207650009924575  0.6308360690031797
  0.6230015628637194  0.7930550393195380  0.3201278728738411
  0.3722547674488050  0.6861451750472144  0.1974745261744796
  0.6778295650526769  0.2072418745621572  0.3794007530046318
  0.2027442460711880  0.3793573262363705  0.6782980600410409
  0.5815676913681226  0.3643659848184827  0.0968359324172035
  0.0931547036393831  0.5829206164162662  0.3612962421544501
  0.3649978039491356  0.0960005756047368  0.5800495992531703
  0.6386046540619078  0.4144611040863110  0.9059954506080498
  0.4195247034553717  0.9030305148772738  0.6358516962314698
  0.9017690923151687  0.6351819451563623  0.4193908785025928
  0.4191431663442969  0.6350276473931161  0.9032697541300719
  0.9059566643511480  0.4153201559239061  0.6385775599253704
  0.6354124608544041  0.9021280346119769  0.4198372691903484
  0.3629094082958286  0.5817489885389988  0.0947114027791245
  0.5823321218554289  0.0941726404687084  0.3647687717410414
  0.0965184301853036  0.3647414728942286  0.5793301745038986
  0.9970204828850119  0.8382755191310581  0.9976492343720924
  0.9960083714414728  0.9986297860691248  0.8382317641712913
  0.8285937432742959  0.0023777513352954  0.0011880075142552
  0.1623472563470927  0.0031023141016551  0.0036839360336900
  0.9996671608261255  0.9987126760097449  0.1717069864359526
  0.0029123579380007  0.1633857092176617  0.0032042913441961
  0.0979218481830689  0.8414612751268034  0.0997689129733145
  0.0995008939768120  0.0996644185363434  0.8383253164377632
  0.8416386303190577  0.0995738126242810  0.1031732882841071
  0.1616540121324231  0.9025495128748812  0.9002122908398299
  0.8967311462585831  0.9016567664019677  0.1599078857499471
  0.9003737505803577  0.1588518949765727  0.9040597899894725
  0.9953416989679130  0.6656493217028603  0.9954343790185660
  0.9979258166619797  0.9937483920540593  0.6670146106190782
  0.6662828582984306  0.9972907222720644  0.9971554963908720
  0.3329411279982611  0.0062637085224915  0.0058034782525012
  0.0054875000787051  0.0026426675689052  0.3330178523582769
  0.0037554378387270  0.3358373251369455  0.0044344834713612
  0.1970682324822029  0.6872343935310045  0.1977723705894070
  0.1978533669314566  0.2004308148418941  0.6850258046778238
  0.6863098932107098  0.2026718311000417  0.2026589450768773
  0.3138923071519502  0.8005825161939604  0.8008729919834536
  0.7996319536024368  0.8003032109192937  0.3139689838275495
  0.8044746525087793  0.3137223551231361  0.8049213295906471
  0.8927270506056897  0.5105988510394883  0.8969222750654812
  0.8921061621309299  0.8982907789713641  0.5095297892204553
  0.5082233383346968  0.8988999952597163  0.8930911035333360
  0.4908058648293970  0.1035135572840124  0.1065440986701061
  0.1065564097998501  0.1028151770490614  0.4920179983983197
  0.1023956350006387  0.4913610484272423  0.1055803864105722
  0.8001151319323374  0.4947495842515241  0.8005161422510855
  0.7989267816366352  0.8005208541031994  0.4945476357232493
  0.4930843376813344  0.8014093739714678  0.7999034854976298
  0.5079936463308001  0.1989054278454236  0.2010075830154086
  0.2002854861451508  0.1991687629756804  0.5067941687081740
  0.1987557032558213  0.5061447141423507  0.1982083528111551
  0.3832100399286605  0.2142743227152911  0.3818737765337902
  0.3820682114038194  0.3836151373168143  0.2118649160448516
  0.2148770054955378  0.3827063693981814  0.3810193996064013
  0.7857932754225728  0.6161924950027799  0.6160158196873540
  0.6156494162332510  0.6163005304561769  0.7874170642172983
  0.6168991005745609  0.7837465224709161  0.6175786659484482
  0.4859612363681314  0.2210667518784174  0.4890272090060305
  0.4863395675667009  0.4929037180823087  0.2139619002166019
  0.2173026358648383  0.4924861002634951  0.4848640174953520
  0.7830556790636645  0.5102562585721359  0.5109990591560135
  0.5109816716732907  0.5102473185363151  0.7835728759131673
  0.5120035761129920  0.7756642143545147  0.5126895086606060
  0.6181179545059481  0.5999769684855567  0.4432011376631232
  0.4450004249043040  0.5995266828103915  0.6204112883994147
  0.3854978370720167  0.3950130607459404  0.5548449560013720
  0.3916417371401949  0.5620565487188857  0.3772537594126983
  0.3860546060291756  0.3874889353558291  0.3810926865254784
  0.6165707856727144  0.6082736961891981  0.6170110322658674
  0.4958493250217499  0.5031781469208405  0.4947876874012156
  0.1718444163038004  0.1714186218868756  0.0102210259307976
  0.9944194321555889  0.8275950886132601  0.8279968236058181
  0.5940883022696263  0.3041333602381991  0.5255426736433511
  0.6764479996569106  0.2202712461026934  0.6673701192273046
 
  0.00000000E+00  0.00000000E+00  0.00000000E+00
  0.00000000E+00  0.00000000E+00  0.00000000E+00
  0.00000000E+00  0.00000000E+00  0.00000000E+00
  0.00000000E+00  0.00000000E+00  0.00000000E+00
  0.00000000E+00  0.00000000E+00  0.00000000E+00
  0.00000000E+00  0.00000000E+00  0.00000000E+00
  0.00000000E+00  0.00000000E+00  0.00000000E+00
  0.00000000E+00  0.00000000E+00  0.00000000E+00
  0.00000000E+00  0.00000000E+00  0.00000000E+00
  0.00000000E+00  0.00000000E+00  0.00000000E+00
  0.00000000E+00  0.00000000E+00  0.00000000E+00
  0.00000000E+00  0.00000000E+00  0.00000000E+00
  0.00000000E+00  0.00000000E+00  0.00000000E+00
  0.00000000E+00  0.00000000E+00  0.00000000E+00
  0.00000000E+00  0.00000000E+00  0.00000000E+00
  0.00000000E+00  0.00000000E+00  0.00000000E+00
  0.00000000E+00  0.00000000E+00  0.00000000E+00
  0.00000000E+00  0.00000000E+00  0.00000000E+00
  0.00000000E+00  0.00000000E+00  0.00000000E+00
  0.00000000E+00  0.00000000E+00  0.00000000E+00
  0.00000000E+00  0.00000000E+00  0.00000000E+00
  0.00000000E+00  0.00000000E+00  0.00000000E+00
  0.00000000E+00  0.00000000E+00  0.00000000E+00
  0.00000000E+00  0.00000000E+00  0.00000000E+00
  0.00000000E+00  0.00000000E+00  0.00000000E+00
  0.00000000E+00  0.00000000E+00  0.00000000E+00
  0.00000000E+00  0.00000000E+00  0.00000000E+00
  0.00000000E+00  0.00000000E+00  0.00000000E+00
  0.00000000E+00  0.00000000E+00  0.00000000E+00
  0.00000000E+00  0.00000000E+00  0.00000000E+00
  0.00000000E+00  0.00000000E+00  0.00000000E+00
  0.00000000E+00  0.00000000E+00  0.00000000E+00
  0.00000000E+00  0.00000000E+00  0.00000000E+00
  0.00000000E+00  0.00000000E+00  0.00000000E+00
  0.00000000E+00  0.00000000E+00  0.00000000E+00
  0.00000000E+00  0.00000000E+00  0.00000000E+00
  0.00000000E+00  0.00000000E+00  0.00000000E+00
  0.00000000E+00  0.00000000E+00  0.00000000E+00
  0.00000000E+00  0.00000000E+00  0.00000000E+00
  0.00000000E+00  0.00000000E+00  0.00000000E+00
  0.00000000E+00  0.00000000E+00  0.00000000E+00
  0.00000000E+00  0.00000000E+00  0.00000000E+00
  0.00000000E+00  0.00000000E+00  0.00000000E+00
  0.00000000E+00  0.00000000E+00  0.00000000E+00
  0.00000000E+00  0.00000000E+00  0.00000000E+00
  0.00000000E+00  0.00000000E+00  0.00000000E+00
  0.00000000E+00  0.00000000E+00  0.00000000E+00
  0.00000000E+00  0.00000000E+00  0.00000000E+00
  0.00000000E+00  0.00000000E+00  0.00000000E+00
  0.00000000E+00  0.00000000E+00  0.00000000E+00
  0.00000000E+00  0.00000000E+00  0.00000000E+00
  0.00000000E+00  0.00000000E+00  0.00000000E+00
  0.00000000E+00  0.00000000E+00  0.00000000E+00
  0.00000000E+00  0.00000000E+00  0.00000000E+00
  0.00000000E+00  0.00000000E+00  0.00000000E+00
  0.00000000E+00  0.00000000E+00  0.00000000E+00
  0.00000000E+00  0.00000000E+00  0.00000000E+00
  0.00000000E+00  0.00000000E+00  0.00000000E+00
  0.00000000E+00  0.00000000E+00  0.00000000E+00
  0.00000000E+00  0.00000000E+00  0.00000000E+00
  0.00000000E+00  0.00000000E+00  0.00000000E+00
  0.00000000E+00  0.00000000E+00  0.00000000E+00
  0.00000000E+00  0.00000000E+00  0.00000000E+00
  0.00000000E+00  0.00000000E+00  0.00000000E+00
  0.00000000E+00  0.00000000E+00  0.00000000E+00
  0.00000000E+00  0.00000000E+00  0.00000000E+00
  0.00000000E+00  0.00000000E+00  0.00000000E+00
  0.00000000E+00  0.00000000E+00  0.00000000E+00
  0.00000000E+00  0.00000000E+00  0.00000000E+00
  0.00000000E+00  0.00000000E+00  0.00000000E+00
  0.00000000E+00  0.00000000E+00  0.00000000E+00
  0.00000000E+00  0.00000000E+00  0.00000000E+00
  0.00000000E+00  0.00000000E+00  0.00000000E+00
  0.00000000E+00  0.00000000E+00  0.00000000E+00
  0.00000000E+00  0.00000000E+00  0.00000000E+00
  0.00000000E+00  0.00000000E+00  0.00000000E+00
  0.00000000E+00  0.00000000E+00  0.00000000E+00
  0.00000000E+00  0.00000000E+00  0.00000000E+00
  0.00000000E+00  0.00000000E+00  0.00000000E+00
  0.00000000E+00  0.00000000E+00  0.00000000E+00
  0.00000000E+00  0.00000000E+00  0.00000000E+00
  0.00000000E+00  0.00000000E+00  0.00000000E+00
  0.00000000E+00  0.00000000E+00  0.00000000E+00
  0.00000000E+00  0.00000000E+00  0.00000000E+00
  0.00000000E+00  0.00000000E+00  0.00000000E+00
  0.00000000E+00  0.00000000E+00  0.00000000E+00
  0.00000000E+00  0.00000000E+00  0.00000000E+00
  0.00000000E+00  0.00000000E+00  0.00000000E+00
  0.00000000E+00  0.00000000E+00  0.00000000E+00
  0.00000000E+00  0.00000000E+00  0.00000000E+00
  0.00000000E+00  0.00000000E+00  0.00000000E+00
  0.00000000E+00  0.00000000E+00  0.00000000E+00
  0.00000000E+00  0.00000000E+00  0.00000000E+00
  0.00000000E+00  0.00000000E+00  0.00000000E+00
  0.00000000E+00  0.00000000E+00  0.00000000E+00
  0.00000000E+00  0.00000000E+00  0.00000000E+00
  0.00000000E+00  0.00000000E+00  0.00000000E+00
  0.00000000E+00  0.00000000E+00  0.00000000E+00
  0.00000000E+00  0.00000000E+00  0.00000000E+00
  0.00000000E+00  0.00000000E+00  0.00000000E+00
  0.00000000E+00  0.00000000E+00  0.00000000E+00
  0.00000000E+00  0.00000000E+00  0.00000000E+00
  0.00000000E+00  0.00000000E+00  0.00000000E+00
  0.00000000E+00  0.00000000E+00  0.00000000E+00
  0.00000000E+00  0.00000000E+00  0.00000000E+00
  0.00000000E+00  0.00000000E+00  0.00000000E+00
  0.00000000E+00  0.00000000E+00  0.00000000E+00
