XYZ: B12                                
   1.00000000000000     
     2.4415923803136188    1.4096540180017196    4.1709754398124206
    -2.4415923803136188    1.4096540180017196    4.1709754398124206
     0.0000000000000000   -2.8193080360034393    4.1709754398124206
   B 
    12
Direct
  0.0104362251117038  0.6538690304311885  0.0104362251117038
  0.0104362251117038  0.0104362251117038  0.6538690304311885
  0.6538690304311885  0.0104362251117038  0.0104362251117038
  0.3461309695688115  0.9895637748882962  0.9895637748882962
  0.9895637748882962  0.9895637748882962  0.3461309695688115
  0.9895637748882962  0.3461309695688115  0.9895637748882962
  0.2214353724696778  0.6300046419581378  0.2214353724696778
  0.2214353724696778  0.2214353724696778  0.6300046419581378
  0.6300046419581378  0.2214353724696778  0.2214353724696778
  0.3699953580418622  0.7785646275303222  0.7785646275303222
  0.7785646275303222  0.7785646275303222  0.3699953580418622
  0.7785646275303222  0.3699953580418622  0.7785646275303222
 
  0.00000000E+00  0.00000000E+00  0.00000000E+00
  0.00000000E+00  0.00000000E+00  0.00000000E+00
  0.00000000E+00  0.00000000E+00  0.00000000E+00
  0.00000000E+00  0.00000000E+00  0.00000000E+00
  0.00000000E+00  0.00000000E+00  0.00000000E+00
  0.00000000E+00  0.00000000E+00  0.00000000E+00
  0.00000000E+00  0.00000000E+00  0.00000000E+00
  0.00000000E+00  0.00000000E+00  0.00000000E+00
  0.00000000E+00  0.00000000E+00  0.00000000E+00
  0.00000000E+00  0.00000000E+00  0.00000000E+00
  0.00000000E+00  0.00000000E+00  0.00000000E+00
  0.00000000E+00  0.00000000E+00  0.00000000E+00
