XYZ: B28
1.0   #uniform scale factor
 5.043000000  0.000000000  0.000000000
 0.000000000  5.612000000  0.000000000
 0.000000000  0.000000000  6.921000000
28 
Direct
   0.17020000   -0.47940000    0.00000000       5     1       B1   1
  -0.17020000    0.47940000    0.00000000       5     1       B1   2
  -0.32980000   -0.02060000    0.50000000       5     1       B1   3
   0.32980000    0.02060000    0.50000000       5     1       B1   4
   0.16060000    0.28100000    0.37430000       5     2       B2   5
  -0.16060000   -0.28100000    0.37430000       5     2       B2   6
  -0.33940000    0.21900000    0.12570000       5     2       B2   7
   0.33940000   -0.21900000    0.12570000       5     2       B2   8
  -0.16060000   -0.28100000   -0.37430000       5     2       B2   9
   0.16060000    0.28100000   -0.37430000       5     2       B2   10
   0.33940000   -0.21900000   -0.12570000       5     2       B2   11
  -0.33940000    0.21900000   -0.12570000       5     2       B2   12
   0.34720000    0.09240000    0.20930000       5     3       B3   13
  -0.34720000   -0.09240000    0.20930000       5     3       B3   14
  -0.15280000    0.40760000    0.29070000       5     3       B3   15
   0.15280000   -0.40760000    0.29070000       5     3       B3   16
  -0.34720000   -0.09240000   -0.20930000       5     3       B3   17
   0.34720000    0.09240000   -0.20930000       5     3       B3   18
   0.15280000   -0.40760000   -0.29070000       5     3       B3   19
  -0.15280000    0.40760000   -0.29070000       5     3       B3   20
   0.35200000    0.27110000    0.00000000       5     4       B4   21
  -0.35200000   -0.27110000    0.00000000       5     4       B4   22
  -0.14800000    0.22890000    0.50000000       5     4       B4   23
   0.14800000   -0.22890000    0.50000000       5     4       B4   24
   0.16440000    0.00800000    0.00000000       5     5       B5   25
  -0.16440000   -0.00800000    0.00000000       5     5       B5   26
  -0.33560000    0.49200000    0.50000000       5     5       B5   27
   0.33560000   -0.49200000    0.50000000       5     5       B5   28
