XYZ: B14                                
   1.00000000000000     
     2.8472427952287802    1.6438563941865021    4.0664274754867469
    -2.8472427952287802    1.6438563941865021    4.0664274754867469
     0.0000000000000000   -3.2877127882681547    4.0664274754871679
   B 
    14
Direct
  0.8081937343209684  0.3014766358204404  0.8081937343209677
  0.8081937343209680  0.8081937343209680  0.3014766358204402
  0.3014766358204404  0.8081937343209684  0.8081937343209677
  0.6985233641795597  0.1918062656790316  0.1918062656790323
  0.1918062656790319  0.1918062656790319  0.6985233641795598
  0.1918062656790316  0.6985233641795597  0.1918062656790323
  0.9943328674979449  0.6682490240932382  0.9943328674979424
  0.9943328674979425  0.9943328674979425  0.6682490240932399
  0.6682490240932381  0.9943328674979449  0.9943328674979424
  0.3317509759067618  0.0056671325020550  0.0056671325020577
  0.0056671325020575  0.0056671325020575  0.3317509759067601
  0.0056671325020551  0.3317509759067618  0.0056671325020577
  0.3692781462234663  0.3692781462234663  0.3692781462234651
  0.6307218537765338  0.6307218537765338  0.6307218537765348
 
  0.00000000E+00  0.00000000E+00  0.00000000E+00
  0.00000000E+00  0.00000000E+00  0.00000000E+00
  0.00000000E+00  0.00000000E+00  0.00000000E+00
  0.00000000E+00  0.00000000E+00  0.00000000E+00
  0.00000000E+00  0.00000000E+00  0.00000000E+00
  0.00000000E+00  0.00000000E+00  0.00000000E+00
  0.00000000E+00  0.00000000E+00  0.00000000E+00
  0.00000000E+00  0.00000000E+00  0.00000000E+00
  0.00000000E+00  0.00000000E+00  0.00000000E+00
  0.00000000E+00  0.00000000E+00  0.00000000E+00
  0.00000000E+00  0.00000000E+00  0.00000000E+00
  0.00000000E+00  0.00000000E+00  0.00000000E+00
  0.00000000E+00  0.00000000E+00  0.00000000E+00
  0.00000000E+00  0.00000000E+00  0.00000000E+00
