XYZ: B52Vac6                            
   1.00000000000000     
     8.7452736550551524    0.0000000000000000    0.0000000000000000
     0.0000000000000000    8.8861208174365309    0.0000000000000000
     0.0000000000000000    0.0000000000000000    5.0128098146880564
   B 
    52
Direct
  0.3355387802508004  0.0997666186185073  0.3921627539428930
  0.1644612197491996  0.4002333813814926  0.1078372460571069
  0.4163819869267616  0.8206723495363298  0.9079112007016970
  0.6644612197491995  0.9002333813814928  0.3921627539428930
  0.5836180130732382  0.1793276504636702  0.9079112007016970
  0.0836180130732383  0.6793276504636702  0.5920887992983030
  0.9163819869267618  0.3206723495363298  0.5920887992983030
  0.3355387802508004  0.9002333813814928  0.6078372460571069
  0.6644612197491995  0.0997666186185073  0.6078372460571069
  0.5836180130732382  0.8206723495363298  0.0920887992983031
  0.4163819869267616  0.1793276504636702  0.0920887992983031
  0.8355387802508005  0.5997666186185072  0.1078372460571069
  0.1644612197491996  0.5997666186185072  0.8921627539428931
  0.8355387802508005  0.4002333813814926  0.8921627539428931
  0.9163819869267618  0.6793276504636702  0.4079112007016970
  0.0836180130732383  0.3206723495363298  0.4079112007016970
  0.2360504547569852  0.0797605438963956  0.0881729761808435
  0.2639495452430148  0.4202394561036044  0.4118270238191565
  0.4191147162402094  0.7119282770393842  0.5894777189643088
  0.7639495452430147  0.9202394561036041  0.0881729761808435
  0.5808852837597906  0.2880717229606159  0.5894777189643088
  0.0808852837597907  0.7880717229606158  0.9105222810356912
  0.9191147162402094  0.2119282770393841  0.9105222810356912
  0.2360504547569852  0.9202394561036041  0.9118270238191566
  0.7639495452430147  0.0797605438963956  0.9118270238191566
  0.5808852837597906  0.7119282770393842  0.4105222810356914
  0.4191147162402094  0.2880717229606159  0.4105222810356914
  0.7360504547569853  0.5797605438963959  0.4118270238191565
  0.2639495452430148  0.5797605438963959  0.5881729761808434
  0.7360504547569853  0.4202394561036044  0.5881729761808434
  0.9191147162402094  0.7880717229606158  0.0894777189643086
  0.0808852837597907  0.2119282770393841  0.0894777189643086
  0.1347143716896056  0.1238734071070850  0.3918956716721779
  0.3652856283103945  0.3761265928929151  0.1081043283278221
  0.3652856283103945  0.6238734071070851  0.8918956716721779
  0.8652856283103942  0.8761265928929149  0.3918956716721779
  0.6347143716896058  0.3761265928929151  0.8918956716721779
  0.1347143716896056  0.8761265928929149  0.6081043283278221
  0.8652856283103942  0.1238734071070850  0.6081043283278221
  0.6347143716896058  0.6238734071070851  0.1081043283278221
  0.2491695320689157  0.2496845110632787  0.5838319461220237
  0.2508304679310844  0.2503154889367213  0.9161680538779763
  0.2508304679310844  0.7496845110632785  0.0838319461220236
  0.7508304679310844  0.7503154889367215  0.5838319461220237
  0.7491695320689156  0.2503154889367213  0.0838319461220236
  0.2491695320689157  0.7503154889367215  0.4161680538779764
  0.7508304679310844  0.2496845110632787  0.4161680538779764
  0.7491695320689156  0.7496845110632785  0.9161680538779763
  0.0000000000000000  0.0000000000000000  0.5000000000000000
  0.5000000000000000  0.5000000000000000  0.0000000000000000
  0.0000000000000000  0.5000000000000000  0.0000000000000000
  0.5000000000000000  0.0000000000000000  0.5000000000000000
 
  0.00000000E+00  0.00000000E+00  0.00000000E+00
  0.00000000E+00  0.00000000E+00  0.00000000E+00
  0.00000000E+00  0.00000000E+00  0.00000000E+00
  0.00000000E+00  0.00000000E+00  0.00000000E+00
  0.00000000E+00  0.00000000E+00  0.00000000E+00
  0.00000000E+00  0.00000000E+00  0.00000000E+00
  0.00000000E+00  0.00000000E+00  0.00000000E+00
  0.00000000E+00  0.00000000E+00  0.00000000E+00
  0.00000000E+00  0.00000000E+00  0.00000000E+00
  0.00000000E+00  0.00000000E+00  0.00000000E+00
  0.00000000E+00  0.00000000E+00  0.00000000E+00
  0.00000000E+00  0.00000000E+00  0.00000000E+00
  0.00000000E+00  0.00000000E+00  0.00000000E+00
  0.00000000E+00  0.00000000E+00  0.00000000E+00
  0.00000000E+00  0.00000000E+00  0.00000000E+00
  0.00000000E+00  0.00000000E+00  0.00000000E+00
  0.00000000E+00  0.00000000E+00  0.00000000E+00
  0.00000000E+00  0.00000000E+00  0.00000000E+00
  0.00000000E+00  0.00000000E+00  0.00000000E+00
  0.00000000E+00  0.00000000E+00  0.00000000E+00
  0.00000000E+00  0.00000000E+00  0.00000000E+00
  0.00000000E+00  0.00000000E+00  0.00000000E+00
  0.00000000E+00  0.00000000E+00  0.00000000E+00
  0.00000000E+00  0.00000000E+00  0.00000000E+00
  0.00000000E+00  0.00000000E+00  0.00000000E+00
  0.00000000E+00  0.00000000E+00  0.00000000E+00
  0.00000000E+00  0.00000000E+00  0.00000000E+00
  0.00000000E+00  0.00000000E+00  0.00000000E+00
  0.00000000E+00  0.00000000E+00  0.00000000E+00
  0.00000000E+00  0.00000000E+00  0.00000000E+00
  0.00000000E+00  0.00000000E+00  0.00000000E+00
  0.00000000E+00  0.00000000E+00  0.00000000E+00
  0.00000000E+00  0.00000000E+00  0.00000000E+00
  0.00000000E+00  0.00000000E+00  0.00000000E+00
  0.00000000E+00  0.00000000E+00  0.00000000E+00
  0.00000000E+00  0.00000000E+00  0.00000000E+00
  0.00000000E+00  0.00000000E+00  0.00000000E+00
  0.00000000E+00  0.00000000E+00  0.00000000E+00
  0.00000000E+00  0.00000000E+00  0.00000000E+00
  0.00000000E+00  0.00000000E+00  0.00000000E+00
  0.00000000E+00  0.00000000E+00  0.00000000E+00
  0.00000000E+00  0.00000000E+00  0.00000000E+00
  0.00000000E+00  0.00000000E+00  0.00000000E+00
  0.00000000E+00  0.00000000E+00  0.00000000E+00
  0.00000000E+00  0.00000000E+00  0.00000000E+00
  0.00000000E+00  0.00000000E+00  0.00000000E+00
  0.00000000E+00  0.00000000E+00  0.00000000E+00
  0.00000000E+00  0.00000000E+00  0.00000000E+00
  0.00000000E+00  0.00000000E+00  0.00000000E+00
  0.00000000E+00  0.00000000E+00  0.00000000E+00
  0.00000000E+00  0.00000000E+00  0.00000000E+00
  0.00000000E+00  0.00000000E+00  0.00000000E+00
