XYZ: B192Vac4                           
   1.00000000000000     
    10.1481114207875240   -0.0007137176512134   -0.0017443090807093
    -0.0007067564271365   10.0928289033000755    0.0258404957285208
    -0.0025171234685930    0.0360665014528289   14.0768312504973849
   B 
   192
Direct
  0.8737419309427027  0.7342142157830751  0.1310835041180363
  0.2635343960637500  0.8717489424967195  0.8824447184274827
  0.1275302435853312  0.2558031592760197  0.6288896987085802
  0.7416094820536550  0.1241054918885537  0.3729216927097381
  0.2417132678931384  0.3709961522691752  0.8707470280223136
  0.6292030319276909  0.2445799440561625  0.6222475562515729
  0.7650160451271696  0.6285792619581601  0.3724264014846768
  0.3720329593806374  0.7674011721176839  0.1155510043761852
  0.9689101203648975  0.6258131318006961  0.2113605646030130
  0.3743117581887482  0.9685371155571522  0.9599190854453735
  0.0393221887621308  0.3723648395455015  0.7082539469053023
  0.6288211649501035  0.0399746428981920  0.4589392537520620
  0.1339335335155856  0.4597859027348630  0.7893135313764166
  0.5418726333366360  0.1349177317219046  0.5402428691213111
  0.8741899413166968  0.5350692956925771  0.2893573403881081
  0.4669150901564772  0.8739277039711174  0.0360085546414950
  0.9578280306468376  0.8106212833866747  0.2282615672565562
  0.1899219401598154  0.9572744259720058  0.9792715327337722
  0.0420459222673551  0.1886615876818676  0.7293170242399046
  0.8110187638046761  0.0414168972902863  0.4764612172326984
  0.3117699319983616  0.4577514575693031  0.7695589148560941
  0.5409534827791842  0.3121313045002129  0.5177509788570671
  0.6962112507570969  0.5486046660379990  0.2694400351586412
  0.4567154679450844  0.6895535347335836  0.0188228622457893
  0.9591062521952375  0.8903958830092306  0.1134908007002508
  0.1064307959921594  0.9569638147690546  0.8667004331414007
  0.0362447677025051  0.1003316931196611  0.6185825152881150
  0.8976322570611381  0.0332364774599303  0.3626572291659849
  0.3934972989903012  0.4621036650216520  0.8817282198039172
  0.5377050901580293  0.3968640080968717  0.6283618758646621
  0.6085318916092712  0.5441015735774933  0.3804304990869363
  0.4595174856651680  0.6115029598059646  0.1337073333057241
  0.9760093140446695  0.5990194502247868  0.0836660975797220
  0.3957294785228779  0.9745740721004675  0.8329953969193821
  0.0364004946296476  0.3857865494457595  0.5746676623943909
  0.6101317592044975  0.0325069993073085  0.3240061980205858
  0.1118678719151607  0.4650617528484001  0.9228546840083507
  0.5338822837129077  0.1155212110713827  0.6746512173379942
  0.8957609689812067  0.5229953175639988  0.4170928395683952
  0.4751588979565000  0.9018386187057227  0.1630320396851607
  0.9598117658763917  0.7620049295751103  0.0278673188370373
  0.2314816824970437  0.9590340797206477  0.7797236604612163
  0.0383878241027841  0.2161444185158132  0.5272606047863557
  0.7778778236075103  0.0304097013956931  0.2745166465572407
  0.2761514323142818  0.4659955325901118  0.9719203044967358
  0.5332305456361661  0.2840922718050197  0.7219307691483131
  0.7283826361514996  0.5339223210735893  0.4707823063142846
  0.4610397014720949  0.7393648444310505  0.2193900544021943
  0.1084639530145299  0.7246396523551392  0.2452330503768457
  0.2792245036194729  0.1107755604738160  0.9975187931551045
  0.8924494041530532  0.2832040308569340  0.7460701578938499
  0.7197162884173589  0.8940652887415659  0.4942029160220061
  0.2215578144534911  0.6064926061097742  0.7544513025926565
  0.3920440418344112  0.2179101445749475  0.5033419638947435
  0.7820780098233714  0.3904136786737807  0.2511265513005725
  0.6072468902966582  0.7769681654866204  0.0011853399382574
  0.1078679686519202  0.8899393396622862  0.1869675736929255
  0.1105750871058682  0.1100534122080193  0.9412927303524076
  0.8902453538518337  0.1093585030003222  0.6949717142501709
  0.8905816716271689  0.8913076570772189  0.4408031301498282
  0.3884761873023997  0.6090208622216666  0.8080454696999840
  0.3899221260492941  0.3886742969160071  0.5559185369686770
  0.6117990941500067  0.3932509740376599  0.3069863834107893
  0.6066647033695005  0.6111601460088456  0.0595145998801786
  0.1236747596395719  0.6015937260108642  0.1565698167816501
  0.3984134370626609  0.1254420445639007  0.9049767439952384
  0.8840416797600277  0.4019136248319638  0.6511791911598995
  0.5993734651095793  0.8861286480494860  0.4024305167430174
  0.0986455953510213  0.6126779951456554  0.8459285207433787
  0.3878058946332253  0.0978738228241884  0.5980157366251458
  0.9010961270741613  0.3776839298103228  0.3433317370521741
  0.6210237230103657  0.9013999836904003  0.0897714930854270
  0.1132177948829692  0.6856091182521578  0.0474852959520259
  0.3107704466722211  0.1139245982679297  0.7979250740519853
  0.8880807277651008  0.3072769483342763  0.5462737694457603
  0.6924515199779762  0.8827287056496650  0.2945876397117442
  0.1897844026452323  0.6134285492227168  0.9537234562789585
  0.3872042249309972  0.1933870759463306  0.7053431748575160
  0.8089930516118597  0.3834816195285720  0.4523788803162409
  0.6124876869234330  0.8175628729344173  0.1993196152499792
  0.1094746508456288  0.8585054323062520  0.0619642499388171
  0.1404536891421516  0.1108026086551950  0.8147856242934847
  0.8849824818762162  0.1376549120370268  0.5665548663907405
  0.8621671955678183  0.8814972360128815  0.3132621085015856
  0.3623579677127945  0.6135323953032565  0.9350159613168459
  0.3855503021733921  0.3666784671584378  0.6841243318969515
  0.6346164233731925  0.3892510849539053  0.4344133944737972
  0.6104566198709306  0.6435490740162865  0.1849599559479541
  0.2040137910201852  0.7589852137763045  0.1392014561056049
  0.2426893934840697  0.2053404823851410  0.8921140438496443
  0.7949350173872907  0.2449448264398235  0.6427938911202300
  0.7568428586735344  0.7948467475598705  0.3917688060396461
  0.2551638557553566  0.7030794060874636  0.8602653077175794
  0.2984585112592804  0.2543105132497361  0.6106578109084160
  0.7430479630376399  0.2981128547670889  0.3577797873002318
  0.7017227940150583  0.7440416115260248  0.1051236049791262
  0.3172848718393790  0.5680484273500457  0.3595578691701824
  0.4438941477259562  0.3194588068858444  0.1135481400664413
  0.6941334304925665  0.4599414657616742  0.8738967482553369
  0.5521455698431430  0.6951826099207656  0.6165756742670622
  0.0536156453472967  0.8052365017387533  0.6323751288123158
  0.1958667061496280  0.0401767350530140  0.3744862194869483
  0.9436045293863387  0.1809447652057602  0.1339941562293292
  0.8165052307862197  0.9333946273192837  0.8879077423196365
  0.3826287414089735  0.7245055377418076  0.3236433680563013
  0.3005250312594441  0.3937067835765783  0.0770026784512437
  0.6118754337083055  0.3174627591508740  0.8245631461961235
  0.7082463086087495  0.6200171113729795  0.5716097912676154
  0.2094832873011555  0.8781457755101498  0.6769102728664617
  0.1149181153593933  0.1834895735606763  0.4232890788801636
  0.7999427881146217  0.1070236905264774  0.1704989778255737
  0.8816928064603511  0.7771355299365251  0.9237448602676473
  0.2047829271519119  0.7043942402997512  0.3416754921526093
  0.3048979793102686  0.2126277376524191  0.0921078772800922
  0.7947648280810928  0.3140026057031389  0.8433217686969808
  0.6934933494116020  0.8021331182090375  0.5932116287098005
  0.1942879023697143  0.6978499659269582  0.6553107663163982
  0.2960360767387458  0.1865790280236772  0.4052853392126947
  0.8061605365818781  0.2887798598722590  0.1556827801053598
  0.7043132629230104  0.7971994249320776  0.9054369362645796
  0.4668536356671655  0.6230173193881891  0.4089779304019096
  0.3912433797070684  0.4681241369561062  0.1649461812094733
  0.5358689120866501  0.3986332106592280  0.9170161797454179
  0.6106304914318526  0.5380702651640468  0.6587280436658525
  0.1134378198674448  0.9611199492829116  0.5895538466637552
  0.0381541727735888  0.1020984184798192  0.3309822844060265
  0.8892418167907775  0.0326480438709824  0.0824154815243828
  0.9659679784263483  0.8768354297879835  0.8382124790400575
  0.4580468387633032  0.8017254288956500  0.4214101518531843
  0.2133763056609672  0.4638462377282737  0.1749882891910685
  0.5364574823764029  0.2196460293597449  0.9213112225650286
  0.7902941966149329  0.5403447059781488  0.6675219502520469
  0.2929949959611109  0.9593638950165132  0.5819185912665698
  0.0378983216018352  0.2810598935050609  0.3273493652748900
  0.7116663239737814  0.0382294213313631  0.0730657992456787
  0.9575976863060772  0.6981592633878883  0.8270139924816925
  0.1886038838115321  0.5961475826856845  0.4444524405284808
  0.3987043720674959  0.1893657798023351  0.1971510837896997
  0.8187323307560656  0.4144852047759178  0.9504244601888844
  0.5831404737319981  0.8197333630586529  0.6990119453059097
  0.0828394038765133  0.6807266248820788  0.5499663104785582
  0.3196619043685616  0.0844846815693535  0.2974271899479032
  0.9021786248943445  0.3102537367197953  0.0505087108700947
  0.6879481030167541  0.9067540429109910  0.8032902830271557
  0.2650208110732102  0.6707968649767139  0.5453897582631273
  0.3186972819634252  0.2703906258593715  0.2983829537983448
  0.7301407477252908  0.3217906343929798  0.0462680908246340
  0.6682349807791641  0.7342989943026047  0.7941966297195889
  0.1683473004719993  0.7663704514299442  0.4535802417082109
  0.2293874174688387  0.1790717185934615  0.2016253158617154
  0.8188243446394581  0.2303976939083535  0.9498161392604610
  0.7649750327936636  0.8299272377865119  0.7025405496815506
  0.3474998475309605  0.5402619957086817  0.4909443439284518
  0.4624975590548572  0.3464377911838794  0.2460880623932072
  0.6507596893653896  0.4666420327348300 -0.0000791940300781
  0.5347930994778025  0.6524236311692919  0.7431314564356326
  0.0361179693008121  0.8480791996873966  0.5055466763765268
  0.1513774872896907  0.0337357030955773  0.2475228338081797
  0.9613013623477884  0.1530117641496520  0.0012810904195799
  0.8488005512262823  0.9590047205723423  0.7572959709957824
  0.4357966694626118  0.6944738271118092  0.5254875573539257
  0.3131028626583251  0.4454938924305535  0.2782780703753357
  0.5586892016592215  0.3142551374002693  0.0275269514685719
  0.6876034397807869  0.5627742120458693  0.7729820611930763
  0.1908209482149790  0.9365767261165328  0.4757503340838361
  0.0587359165814223  0.1870892522377211  0.2201089324394155
  0.8116639858044362  0.0557807655322808  0.9695287458638292
  0.9360027288483533  0.8041385709131420  0.7224108590388758
  0.3346738571778922  0.8381360524682793  0.5007460281997353
  0.1664205829012930  0.3330000785322051  0.2514591709416818
  0.6657720398395234  0.1687741499083527  0.9967714514941924
  0.8330129899604928  0.6620035518206185  0.7480223846223886
  0.0306053159493483  0.5420909051111423  0.4948660674609746
  0.4594212674441524  0.0359371381950977  0.2420836305482642
  0.9578180171335546  0.4661749900578875  0.0038558990440131
  0.5293150059395407  0.9581589333941022  0.7532098095070531
  0.2872233726953393  0.8486925113382268  0.3834818118860654
  0.1663232940346179  0.3116507832334887  0.1205876694649448
  0.6884159547198946  0.1764077280593986  0.8670269007644809
  0.8292659362415525  0.7068882486911207  0.6323309362635922
  0.3319461275261689  0.7907753011923574  0.6163166171604288
  0.1899855080819597  0.3250968832918883  0.3817269617409554
  0.6661792524596780  0.1908641460577313  0.1278494900711499
  0.7853112596268935  0.6523929601748619  0.8647833906693853
  0.1445363474448741  0.4340039821109562  0.4636142779771744
  0.5593203055781603  0.1609354315407690  0.2134785384719471
  0.0637428172338037  0.3515931747591220  0.0345241771349624
  0.6351065343947661  0.0694983665428278  0.7867845964518485
  0.2231838817992162  0.2312146933666104  0.7346340361533854
  0.8058137497179668  0.2137715136811600  0.4626060347203159
  0.7535335091808063  0.7331724473616592  0.2253205280156703
  0.2482388286192357  0.7701467854668350  0.0007708396965711
 
  0.00000000E+00  0.00000000E+00  0.00000000E+00
  0.00000000E+00  0.00000000E+00  0.00000000E+00
  0.00000000E+00  0.00000000E+00  0.00000000E+00
  0.00000000E+00  0.00000000E+00  0.00000000E+00
  0.00000000E+00  0.00000000E+00  0.00000000E+00
  0.00000000E+00  0.00000000E+00  0.00000000E+00
  0.00000000E+00  0.00000000E+00  0.00000000E+00
  0.00000000E+00  0.00000000E+00  0.00000000E+00
  0.00000000E+00  0.00000000E+00  0.00000000E+00
  0.00000000E+00  0.00000000E+00  0.00000000E+00
  0.00000000E+00  0.00000000E+00  0.00000000E+00
  0.00000000E+00  0.00000000E+00  0.00000000E+00
  0.00000000E+00  0.00000000E+00  0.00000000E+00
  0.00000000E+00  0.00000000E+00  0.00000000E+00
  0.00000000E+00  0.00000000E+00  0.00000000E+00
  0.00000000E+00  0.00000000E+00  0.00000000E+00
  0.00000000E+00  0.00000000E+00  0.00000000E+00
  0.00000000E+00  0.00000000E+00  0.00000000E+00
  0.00000000E+00  0.00000000E+00  0.00000000E+00
  0.00000000E+00  0.00000000E+00  0.00000000E+00
  0.00000000E+00  0.00000000E+00  0.00000000E+00
  0.00000000E+00  0.00000000E+00  0.00000000E+00
  0.00000000E+00  0.00000000E+00  0.00000000E+00
  0.00000000E+00  0.00000000E+00  0.00000000E+00
  0.00000000E+00  0.00000000E+00  0.00000000E+00
  0.00000000E+00  0.00000000E+00  0.00000000E+00
  0.00000000E+00  0.00000000E+00  0.00000000E+00
  0.00000000E+00  0.00000000E+00  0.00000000E+00
  0.00000000E+00  0.00000000E+00  0.00000000E+00
  0.00000000E+00  0.00000000E+00  0.00000000E+00
  0.00000000E+00  0.00000000E+00  0.00000000E+00
  0.00000000E+00  0.00000000E+00  0.00000000E+00
  0.00000000E+00  0.00000000E+00  0.00000000E+00
  0.00000000E+00  0.00000000E+00  0.00000000E+00
  0.00000000E+00  0.00000000E+00  0.00000000E+00
  0.00000000E+00  0.00000000E+00  0.00000000E+00
  0.00000000E+00  0.00000000E+00  0.00000000E+00
  0.00000000E+00  0.00000000E+00  0.00000000E+00
  0.00000000E+00  0.00000000E+00  0.00000000E+00
  0.00000000E+00  0.00000000E+00  0.00000000E+00
  0.00000000E+00  0.00000000E+00  0.00000000E+00
  0.00000000E+00  0.00000000E+00  0.00000000E+00
  0.00000000E+00  0.00000000E+00  0.00000000E+00
  0.00000000E+00  0.00000000E+00  0.00000000E+00
  0.00000000E+00  0.00000000E+00  0.00000000E+00
  0.00000000E+00  0.00000000E+00  0.00000000E+00
  0.00000000E+00  0.00000000E+00  0.00000000E+00
  0.00000000E+00  0.00000000E+00  0.00000000E+00
  0.00000000E+00  0.00000000E+00  0.00000000E+00
  0.00000000E+00  0.00000000E+00  0.00000000E+00
  0.00000000E+00  0.00000000E+00  0.00000000E+00
  0.00000000E+00  0.00000000E+00  0.00000000E+00
  0.00000000E+00  0.00000000E+00  0.00000000E+00
  0.00000000E+00  0.00000000E+00  0.00000000E+00
  0.00000000E+00  0.00000000E+00  0.00000000E+00
  0.00000000E+00  0.00000000E+00  0.00000000E+00
  0.00000000E+00  0.00000000E+00  0.00000000E+00
  0.00000000E+00  0.00000000E+00  0.00000000E+00
  0.00000000E+00  0.00000000E+00  0.00000000E+00
  0.00000000E+00  0.00000000E+00  0.00000000E+00
  0.00000000E+00  0.00000000E+00  0.00000000E+00
  0.00000000E+00  0.00000000E+00  0.00000000E+00
  0.00000000E+00  0.00000000E+00  0.00000000E+00
  0.00000000E+00  0.00000000E+00  0.00000000E+00
  0.00000000E+00  0.00000000E+00  0.00000000E+00
  0.00000000E+00  0.00000000E+00  0.00000000E+00
  0.00000000E+00  0.00000000E+00  0.00000000E+00
  0.00000000E+00  0.00000000E+00  0.00000000E+00
  0.00000000E+00  0.00000000E+00  0.00000000E+00
  0.00000000E+00  0.00000000E+00  0.00000000E+00
  0.00000000E+00  0.00000000E+00  0.00000000E+00
  0.00000000E+00  0.00000000E+00  0.00000000E+00
  0.00000000E+00  0.00000000E+00  0.00000000E+00
  0.00000000E+00  0.00000000E+00  0.00000000E+00
  0.00000000E+00  0.00000000E+00  0.00000000E+00
  0.00000000E+00  0.00000000E+00  0.00000000E+00
  0.00000000E+00  0.00000000E+00  0.00000000E+00
  0.00000000E+00  0.00000000E+00  0.00000000E+00
  0.00000000E+00  0.00000000E+00  0.00000000E+00
  0.00000000E+00  0.00000000E+00  0.00000000E+00
  0.00000000E+00  0.00000000E+00  0.00000000E+00
  0.00000000E+00  0.00000000E+00  0.00000000E+00
  0.00000000E+00  0.00000000E+00  0.00000000E+00
  0.00000000E+00  0.00000000E+00  0.00000000E+00
  0.00000000E+00  0.00000000E+00  0.00000000E+00
  0.00000000E+00  0.00000000E+00  0.00000000E+00
  0.00000000E+00  0.00000000E+00  0.00000000E+00
  0.00000000E+00  0.00000000E+00  0.00000000E+00
  0.00000000E+00  0.00000000E+00  0.00000000E+00
  0.00000000E+00  0.00000000E+00  0.00000000E+00
  0.00000000E+00  0.00000000E+00  0.00000000E+00
  0.00000000E+00  0.00000000E+00  0.00000000E+00
  0.00000000E+00  0.00000000E+00  0.00000000E+00
  0.00000000E+00  0.00000000E+00  0.00000000E+00
  0.00000000E+00  0.00000000E+00  0.00000000E+00
  0.00000000E+00  0.00000000E+00  0.00000000E+00
  0.00000000E+00  0.00000000E+00  0.00000000E+00
  0.00000000E+00  0.00000000E+00  0.00000000E+00
  0.00000000E+00  0.00000000E+00  0.00000000E+00
  0.00000000E+00  0.00000000E+00  0.00000000E+00
  0.00000000E+00  0.00000000E+00  0.00000000E+00
  0.00000000E+00  0.00000000E+00  0.00000000E+00
  0.00000000E+00  0.00000000E+00  0.00000000E+00
  0.00000000E+00  0.00000000E+00  0.00000000E+00
  0.00000000E+00  0.00000000E+00  0.00000000E+00
  0.00000000E+00  0.00000000E+00  0.00000000E+00
  0.00000000E+00  0.00000000E+00  0.00000000E+00
  0.00000000E+00  0.00000000E+00  0.00000000E+00
  0.00000000E+00  0.00000000E+00  0.00000000E+00
  0.00000000E+00  0.00000000E+00  0.00000000E+00
  0.00000000E+00  0.00000000E+00  0.00000000E+00
  0.00000000E+00  0.00000000E+00  0.00000000E+00
  0.00000000E+00  0.00000000E+00  0.00000000E+00
  0.00000000E+00  0.00000000E+00  0.00000000E+00
  0.00000000E+00  0.00000000E+00  0.00000000E+00
  0.00000000E+00  0.00000000E+00  0.00000000E+00
  0.00000000E+00  0.00000000E+00  0.00000000E+00
  0.00000000E+00  0.00000000E+00  0.00000000E+00
  0.00000000E+00  0.00000000E+00  0.00000000E+00
  0.00000000E+00  0.00000000E+00  0.00000000E+00
  0.00000000E+00  0.00000000E+00  0.00000000E+00
  0.00000000E+00  0.00000000E+00  0.00000000E+00
  0.00000000E+00  0.00000000E+00  0.00000000E+00
  0.00000000E+00  0.00000000E+00  0.00000000E+00
  0.00000000E+00  0.00000000E+00  0.00000000E+00
  0.00000000E+00  0.00000000E+00  0.00000000E+00
  0.00000000E+00  0.00000000E+00  0.00000000E+00
  0.00000000E+00  0.00000000E+00  0.00000000E+00
  0.00000000E+00  0.00000000E+00  0.00000000E+00
  0.00000000E+00  0.00000000E+00  0.00000000E+00
  0.00000000E+00  0.00000000E+00  0.00000000E+00
  0.00000000E+00  0.00000000E+00  0.00000000E+00
  0.00000000E+00  0.00000000E+00  0.00000000E+00
  0.00000000E+00  0.00000000E+00  0.00000000E+00
  0.00000000E+00  0.00000000E+00  0.00000000E+00
  0.00000000E+00  0.00000000E+00  0.00000000E+00
  0.00000000E+00  0.00000000E+00  0.00000000E+00
  0.00000000E+00  0.00000000E+00  0.00000000E+00
  0.00000000E+00  0.00000000E+00  0.00000000E+00
  0.00000000E+00  0.00000000E+00  0.00000000E+00
  0.00000000E+00  0.00000000E+00  0.00000000E+00
  0.00000000E+00  0.00000000E+00  0.00000000E+00
  0.00000000E+00  0.00000000E+00  0.00000000E+00
  0.00000000E+00  0.00000000E+00  0.00000000E+00
  0.00000000E+00  0.00000000E+00  0.00000000E+00
  0.00000000E+00  0.00000000E+00  0.00000000E+00
  0.00000000E+00  0.00000000E+00  0.00000000E+00
  0.00000000E+00  0.00000000E+00  0.00000000E+00
  0.00000000E+00  0.00000000E+00  0.00000000E+00
  0.00000000E+00  0.00000000E+00  0.00000000E+00
  0.00000000E+00  0.00000000E+00  0.00000000E+00
  0.00000000E+00  0.00000000E+00  0.00000000E+00
  0.00000000E+00  0.00000000E+00  0.00000000E+00
  0.00000000E+00  0.00000000E+00  0.00000000E+00
  0.00000000E+00  0.00000000E+00  0.00000000E+00
  0.00000000E+00  0.00000000E+00  0.00000000E+00
  0.00000000E+00  0.00000000E+00  0.00000000E+00
  0.00000000E+00  0.00000000E+00  0.00000000E+00
  0.00000000E+00  0.00000000E+00  0.00000000E+00
  0.00000000E+00  0.00000000E+00  0.00000000E+00
  0.00000000E+00  0.00000000E+00  0.00000000E+00
  0.00000000E+00  0.00000000E+00  0.00000000E+00
  0.00000000E+00  0.00000000E+00  0.00000000E+00
  0.00000000E+00  0.00000000E+00  0.00000000E+00
  0.00000000E+00  0.00000000E+00  0.00000000E+00
  0.00000000E+00  0.00000000E+00  0.00000000E+00
  0.00000000E+00  0.00000000E+00  0.00000000E+00
  0.00000000E+00  0.00000000E+00  0.00000000E+00
  0.00000000E+00  0.00000000E+00  0.00000000E+00
  0.00000000E+00  0.00000000E+00  0.00000000E+00
  0.00000000E+00  0.00000000E+00  0.00000000E+00
  0.00000000E+00  0.00000000E+00  0.00000000E+00
  0.00000000E+00  0.00000000E+00  0.00000000E+00
  0.00000000E+00  0.00000000E+00  0.00000000E+00
  0.00000000E+00  0.00000000E+00  0.00000000E+00
  0.00000000E+00  0.00000000E+00  0.00000000E+00
  0.00000000E+00  0.00000000E+00  0.00000000E+00
  0.00000000E+00  0.00000000E+00  0.00000000E+00
  0.00000000E+00  0.00000000E+00  0.00000000E+00
  0.00000000E+00  0.00000000E+00  0.00000000E+00
  0.00000000E+00  0.00000000E+00  0.00000000E+00
  0.00000000E+00  0.00000000E+00  0.00000000E+00
  0.00000000E+00  0.00000000E+00  0.00000000E+00
  0.00000000E+00  0.00000000E+00  0.00000000E+00
  0.00000000E+00  0.00000000E+00  0.00000000E+00
  0.00000000E+00  0.00000000E+00  0.00000000E+00
  0.00000000E+00  0.00000000E+00  0.00000000E+00
  0.00000000E+00  0.00000000E+00  0.00000000E+00
  0.00000000E+00  0.00000000E+00  0.00000000E+00
  0.00000000E+00  0.00000000E+00  0.00000000E+00
  0.00000000E+00  0.00000000E+00  0.00000000E+00
  0.00000000E+00  0.00000000E+00  0.00000000E+00
