XYZ: B15                                
   1.00000000000000     
     2.8929204145465834    1.6702283800458286    3.9828763650340324
    -2.8929204145465834    1.6702283800458286    3.9828763650340324
     0.0000000000000000   -3.3404567599898201    3.9828763650346786
   B 
    15
Direct
  0.5000000000000000  0.5000000000000000  0.5000000000000000
  0.6352290660022639  0.6352290660022639  0.6352290660022665
  0.3647709339977362  0.3647709339977362  0.3647709339977336
  0.8061221700905808  0.3014238583551317  0.8061221700905845
  0.8061221700905848  0.8061221700905848  0.3014238583551273
  0.3014238583551317  0.8061221700905808  0.8061221700905845
  0.6985761416448684  0.1938778299094192  0.1938778299094155
  0.1938778299094152  0.1938778299094152  0.6985761416448728
  0.1938778299094192  0.6985761416448684  0.1938778299094155
  0.0055721341670386  0.3308897267084533  0.0055721341670377
  0.0055721341670377  0.0055721341670377  0.3308897267084543
  0.3308897267084533  0.0055721341670386  0.0055721341670377
  0.6691102732915468  0.9944278658329615  0.9944278658329623
  0.9944278658329623  0.9944278658329623  0.6691102732915457
  0.9944278658329615  0.6691102732915468  0.9944278658329623
 
  0.00000000E+00  0.00000000E+00  0.00000000E+00
  0.00000000E+00  0.00000000E+00  0.00000000E+00
  0.00000000E+00  0.00000000E+00  0.00000000E+00
  0.00000000E+00  0.00000000E+00  0.00000000E+00
  0.00000000E+00  0.00000000E+00  0.00000000E+00
  0.00000000E+00  0.00000000E+00  0.00000000E+00
  0.00000000E+00  0.00000000E+00  0.00000000E+00
  0.00000000E+00  0.00000000E+00  0.00000000E+00
  0.00000000E+00  0.00000000E+00  0.00000000E+00
  0.00000000E+00  0.00000000E+00  0.00000000E+00
  0.00000000E+00  0.00000000E+00  0.00000000E+00
  0.00000000E+00  0.00000000E+00  0.00000000E+00
  0.00000000E+00  0.00000000E+00  0.00000000E+00
  0.00000000E+00  0.00000000E+00  0.00000000E+00
  0.00000000E+00  0.00000000E+00  0.00000000E+00
